/*********************************************
 * OPL 12.6.0.0 Data
 * Author: Adrian Rodriguez Bazaga, Pau Rodriguez Esmerats
 * Creation Date: 30/11/2017 at 19:59:15
 *********************************************/

nNurses=1050;
maxConsec=2;
maxPresence=7;
maxHours=5;
minHours=1;
demand= [210 235 330 317 235 330 317 244 245 132 28 43 42 56 52 47 38 31 24 13 186 381 205 275  ];
